15	2	2
4065	4065	
255	981	1038	
634	487	517	
422	587	640	
996	760	787	
140	440	476	
994	476	506	
31	347	372	
932	613	640	
794	648	678	
50	164	175	
352	698	708	
830	764	769	
543	156	160	
799	952	954	
442	57	62	
